50
    1    94    85
    2     6    26
    3    16    48
    4    92    21
    5    49    22
    6    37    95
    7    57    43
    8    15    45
    9    46    55
   10    22    52
   11    91     9
   12    59     1
   13    67    22
   14    98    94
   15     7    38
   16    44    74
   17    34    15
   18    66    82
   19    94    67
   20    93    84
   21    33    99
   22    31    33
   23    28    82
   24   100    72
   25    17    74
   26    74    38
   27    20    56
   28    19    45
   29    94    95
   30    96    29
   31    97    99
   32    16    77
   33     8    97
   34    39    19
   35     7    42
   36    69     7
   37    37    22
   38    31    70
   39    26    98
   40    87   100
   41    72    45
   42    13    67
   43    81    72
   44    43    95
   45    58    13
   46     3    48
   47    64    87
   48    36    23
   49    24    29
   50    89    74
464
